5 5
0 58 1 79 4 23 3 69 2 60
1 43 0 89 3 94 2 26 4 67
1 68 2 55 0 47 4 82 3 59
0 75 2 75 3 16 1 58 4 89
4 1 0 90 1 45 3 94 2 6
-1
0 1 2 3 5
0 1 2 3 5
0 2 3 5
0 2 3 4 5
0 3 4 5
-2
59 180 224 310
55 155 318 340
169 256 468
196 204 329 448
183 264 239

515 9
0 15 12 6 21
10 1 5 18 22
11 16 4 8 24
3 17 14 7 23
2 13 20 19 9
